55
1 57 
1 39 
1 20 
3 17 9 48 
1 22 
1 30 
1 47 
1 12 
1 33 
1 28 
1 8 
2 40 21 
1 15 
1 25 
3 5 59 60 
1 45 
1 13 
1 11 
1 1 
1 34 
1 36 
1 27 
1 43 
1 35 
1 16 
1 41 
1 58 
1 32 
1 3 
1 4 
1 29 
1 6 
1 53 
1 55 
1 38 
1 56 
1 52 
1 24 
1 54 
1 37 
1 7 
1 18 
1 51 
1 31 
1 42 
1 44 
1 19 
1 23 
1 10 
1 46 
1 2 
1 49 
1 14 
1 50 
1 26 
